Optimal - objective value 5.00000000
      0 x_0_0                       1                       0
      2 x_1_1                       1                       1
      5 x_2_2                       1                       0
      9 x_3_3                       1                       0
     11 x_4_1                       1                       0
     15 x_5_0                       1                       0
     22 x_6_1                       1                       0
     35 x_7_7                       1                       0
     36 x_8_0                       1                       0
     52 x_9_7                       1                       0
     58 x_10_3                      1                       0
     73 x_11_7                      1                       0
     79 x_12_1                      1                       0
     93 x_13_2                      1                       0
    108 x_14_3                      1                       0
    121 x_15_1                      1                       0
    138 x_16_2                      1                       0
    154 x_17_1                      1                       0
    173 x_18_2                      1                       0
    193 x_19_3                      1                       0
    217 x_20_7                      1                       1
    238 x_21_7                      1                       0
    260 x_22_7                      1                       0
